c random formula
p cnf 10 30
5 9 0
-8 -5 0
-10 -7 0
4 9 0
6 -7 0
7 10 0
-6 -8 0
-10 8 0
3 9 0
8 -2 0
4 10 0
-4 -5 0
-10 7 0
5 8 0
1 5 0
-6 7 0
-1 -4 0
7 6 0
7 -5 0
7 3 0
9 -7 0
-3 4 0
1 9 0
-1 6 0
2 5 0
-5 1 0
6 -1 0
2 3 0
-10 -5 0
-5 10 0
